unsat
(:max-memory          18.05
 :memory              17.92
 :nlsat-conflicts     3
 :nlsat-learned-added 2
 :nlsat-propagations  8
 :nlsat-stages        3
 :num-allocs          5430
 :rlimit-count        1269
 :time                0.00
 :total-time          0.01)
